solving instance transportation 20 8 sinabc1
Couenne 0.5.8 -- an Open-Source solver for Mixed Integer Nonlinear Optimization
Mailing list: couenne@list.coin-or.org
Instructions: http://www.coin-or.org/Couenne
couenne: 
ANALYSIS TEST: Reformulating problem: 0.4 seconds
NLP0012I 
              Num      Status      Obj             It       time                 Location
NLP0014I             1         OPT 298.36081       39 0.360425
NLP0014I             2         OPT 578.65823       64 0.600735
Couenne: new cutoff value 5.7865823547e+02 (14.6152 seconds)
Loaded instance "/tmp/jl_uMDtY0/model.nl"
Constraints:          840
Variables:           1200 (400 integer)
Auxiliaries:         1602 (0 integer)

Coin0506I Presolve 4031 (-810) rows, 1991 (-811) columns and 9581 (-1621) elements
Clp0006I 0  Obj 0 Primal inf 801.7891 (20)
Clp0006I 155  Obj 5.2057705e-14 Primal inf 1101.5741 (103)
Clp0006I 310  Obj 6.3891797e-14 Primal inf 1510.0852 (141)
Clp0006I 465  Obj 1.4264446e-09 Primal inf 6226.6023 (167)
Clp0006I 620  Obj 7.80058e-05 Primal inf 5004.7251 (160)
Clp0006I 775  Obj 0.00020964267 Primal inf 1800.4399 (140)
Clp0006I 930  Obj 0.00048415159 Primal inf 4699.5298 (149)
Clp0006I 1085  Obj 23.625468 Primal inf 1128.2554 (136)
Clp0006I 1240  Obj 32.336163 Primal inf 777.49109 (120)
Clp0006I 1395  Obj 34.004878 Primal inf 343.17542 (96)
Clp0006I 1550  Obj 34.544151 Primal inf 25.188776 (18)
Clp0006I 1577  Obj 34.549405
Clp0000I Optimal - objective value 34.549136
Clp0032I Optimal objective 34.5491361 - 1577 iterations time 0.222, Presolve 0.02
Clp0000I Optimal - objective value 34.549136
NLP Heuristic: time limit reached.
Clp0000I Optimal - objective value 34.549136
Optimality Based BT: 0 improved bounds
Probing: 0 improved bounds
NLP Heuristic: time limit reached.
Cbc0031I 740 added rows had average density of 2
Cbc0013I At root node, 740 cuts changed objective from 34.549136 to 125.70064 in 20 passes
Cbc0014I Cut generator 0 (Couenne convexifier cuts) - 6501 row cuts average 2.0 elements, 465 column cuts (1119 active)
Cbc0010I After 0 nodes, 1 on tree, 1e+50 best solution, best possible -1.7976931e+308 (34.02 seconds)
Optimality Based BT: 0 improved bounds
Optimality Based BT: 0 improved bounds
Optimality Based BT: 0 improved bounds
Optimality Based BT: 0 improved bounds
Optimality Based BT: 0 improved bounds
Optimality Based BT: 10 improved bounds
Optimality Based BT: 0 improved bounds
Cbc0010I After 100 nodes, 50 on tree, 1e+50 best solution, best possible 126.0195 (293.30 seconds)
Cbc0010I After 200 nodes, 100 on tree, 1e+50 best solution, best possible 126.0195 (310.28 seconds)
Cbc0010I After 300 nodes, 150 on tree, 1e+50 best solution, best possible 126.0195 (326.08 seconds)
Cbc0010I After 400 nodes, 200 on tree, 1e+50 best solution, best possible 126.0195 (341.12 seconds)
Cbc0010I After 500 nodes, 250 on tree, 1e+50 best solution, best possible 126.0195 (356.44 seconds)
Cbc0010I After 600 nodes, 300 on tree, 1e+50 best solution, best possible 126.0195 (372.24 seconds)
Cbc0010I After 700 nodes, 350 on tree, 1e+50 best solution, best possible 126.0195 (387.76 seconds)
Cbc0010I After 800 nodes, 400 on tree, 1e+50 best solution, best possible 126.0195 (402.08 seconds)
Cbc0010I After 900 nodes, 449 on tree, 1e+50 best solution, best possible 126.0195 (416.31 seconds)
Cbc0010I After 1000 nodes, 499 on tree, 1e+50 best solution, best possible 126.0195 (431.43 seconds)
Cbc0010I After 1100 nodes, 549 on tree, 1e+50 best solution, best possible 126.0195 (446.94 seconds)
Cbc0010I After 1200 nodes, 599 on tree, 1e+50 best solution, best possible 126.0195 (461.68 seconds)
Cbc0010I After 1300 nodes, 649 on tree, 1e+50 best solution, best possible 126.0195 (475.65 seconds)
Cbc0010I After 1400 nodes, 699 on tree, 1e+50 best solution, best possible 126.0195 (489.65 seconds)
Cbc0010I After 1500 nodes, 749 on tree, 1e+50 best solution, best possible 126.0195 (503.03 seconds)
Cbc0010I After 1600 nodes, 799 on tree, 1e+50 best solution, best possible 126.0195 (516.22 seconds)
Cbc0010I After 1700 nodes, 849 on tree, 1e+50 best solution, best possible 126.0195 (529.83 seconds)
Cbc0010I After 1800 nodes, 899 on tree, 1e+50 best solution, best possible 126.0195 (542.68 seconds)
Cbc0010I After 1900 nodes, 949 on tree, 1e+50 best solution, best possible 126.0195 (555.10 seconds)
Cbc0010I After 2000 nodes, 999 on tree, 1e+50 best solution, best possible 126.0195 (567.26 seconds)
Cbc0010I After 2100 nodes, 1049 on tree, 1e+50 best solution, best possible 126.0195 (580.02 seconds)
Cbc0010I After 2200 nodes, 1099 on tree, 1e+50 best solution, best possible 126.0195 (592.53 seconds)
Cbc0010I After 2300 nodes, 1149 on tree, 1e+50 best solution, best possible 126.0195 (605.07 seconds)
Cbc0010I After 2400 nodes, 1199 on tree, 1e+50 best solution, best possible 126.0195 (617.05 seconds)
Cbc0010I After 2500 nodes, 1249 on tree, 1e+50 best solution, best possible 126.0195 (629.33 seconds)
Cbc0010I After 2600 nodes, 1299 on tree, 1e+50 best solution, best possible 126.0195 (641.63 seconds)
Cbc0010I After 2700 nodes, 1349 on tree, 1e+50 best solution, best possible 126.0195 (653.48 seconds)
Cbc0010I After 2800 nodes, 1399 on tree, 1e+50 best solution, best possible 126.0195 (665.92 seconds)
Cbc0010I After 2900 nodes, 1449 on tree, 1e+50 best solution, best possible 126.0195 (677.93 seconds)
Cbc0010I After 3000 nodes, 1499 on tree, 1e+50 best solution, best possible 126.0195 (690.33 seconds)
Cbc0010I After 3100 nodes, 1549 on tree, 1e+50 best solution, best possible 126.0195 (702.37 seconds)
Cbc0010I After 3200 nodes, 1599 on tree, 1e+50 best solution, best possible 126.0195 (714.66 seconds)
Cbc0010I After 3300 nodes, 1649 on tree, 1e+50 best solution, best possible 126.0195 (726.86 seconds)
Cbc0010I After 3400 nodes, 1699 on tree, 1e+50 best solution, best possible 126.0195 (739.05 seconds)
Cbc0010I After 3500 nodes, 1749 on tree, 1e+50 best solution, best possible 126.0195 (751.16 seconds)
Cbc0010I After 3600 nodes, 1799 on tree, 1e+50 best solution, best possible 126.0195 (763.82 seconds)
Cbc0010I After 3700 nodes, 1849 on tree, 1e+50 best solution, best possible 126.0195 (776.17 seconds)
Cbc0010I After 3800 nodes, 1899 on tree, 1e+50 best solution, best possible 126.0195 (788.91 seconds)
Cbc0010I After 3900 nodes, 1949 on tree, 1e+50 best solution, best possible 126.0195 (801.50 seconds)
Cbc0010I After 4000 nodes, 1999 on tree, 1e+50 best solution, best possible 126.0195 (813.92 seconds)
Cbc0010I After 4100 nodes, 2049 on tree, 1e+50 best solution, best possible 126.0195 (826.76 seconds)
Cbc0010I After 4200 nodes, 2099 on tree, 1e+50 best solution, best possible 126.0195 (839.46 seconds)
Cbc0010I After 4300 nodes, 2149 on tree, 1e+50 best solution, best possible 126.0195 (852.03 seconds)
Cbc0010I After 4400 nodes, 2199 on tree, 1e+50 best solution, best possible 126.0195 (864.67 seconds)
Cbc0010I After 4500 nodes, 2249 on tree, 1e+50 best solution, best possible 126.0195 (877.56 seconds)
Cbc0010I After 4600 nodes, 2299 on tree, 1e+50 best solution, best possible 126.0195 (890.64 seconds)
Cbc0010I After 4700 nodes, 2349 on tree, 1e+50 best solution, best possible 126.0195 (903.58 seconds)
Cbc0010I After 4800 nodes, 2399 on tree, 1e+50 best solution, best possible 126.0195 (916.63 seconds)
Cbc0010I After 4900 nodes, 2449 on tree, 1e+50 best solution, best possible 126.0195 (930.03 seconds)
Cbc0010I After 5000 nodes, 2499 on tree, 1e+50 best solution, best possible 126.0195 (943.51 seconds)
Cbc0010I After 5100 nodes, 2549 on tree, 1e+50 best solution, best possible 126.0195 (956.78 seconds)
Cbc0010I After 5200 nodes, 2599 on tree, 1e+50 best solution, best possible 126.0195 (970.33 seconds)
Cbc0010I After 5300 nodes, 2649 on tree, 1e+50 best solution, best possible 126.0195 (983.83 seconds)
Cbc0010I After 5400 nodes, 2699 on tree, 1e+50 best solution, best possible 126.0195 (997.38 seconds)
Cbc0010I After 5500 nodes, 2749 on tree, 1e+50 best solution, best possible 126.0195 (1010.53 seconds)
Cbc0010I After 5600 nodes, 2799 on tree, 1e+50 best solution, best possible 126.0195 (1023.42 seconds)
Cbc0010I After 5700 nodes, 2849 on tree, 1e+50 best solution, best possible 126.0195 (1036.43 seconds)
Cbc0010I After 5800 nodes, 2899 on tree, 1e+50 best solution, best possible 126.0195 (1049.54 seconds)
Cbc0010I After 5900 nodes, 2949 on tree, 1e+50 best solution, best possible 126.0195 (1062.79 seconds)
Cbc0010I After 6000 nodes, 2999 on tree, 1e+50 best solution, best possible 126.0195 (1076.12 seconds)
Cbc0010I After 6100 nodes, 3049 on tree, 1e+50 best solution, best possible 126.0195 (1089.68 seconds)
Cbc0010I After 6200 nodes, 3099 on tree, 1e+50 best solution, best possible 126.0195 (1103.47 seconds)
Cbc0010I After 6300 nodes, 3149 on tree, 1e+50 best solution, best possible 126.0195 (1117.44 seconds)
Cbc0010I After 6400 nodes, 3199 on tree, 1e+50 best solution, best possible 126.0195 (1131.53 seconds)
Cbc0010I After 6500 nodes, 3249 on tree, 1e+50 best solution, best possible 126.0195 (1145.67 seconds)
Cbc0010I After 6600 nodes, 3299 on tree, 1e+50 best solution, best possible 126.0195 (1159.94 seconds)
Cbc0010I After 6700 nodes, 3349 on tree, 1e+50 best solution, best possible 126.0195 (1174.32 seconds)
Cbc0010I After 6800 nodes, 3399 on tree, 1e+50 best solution, best possible 126.0195 (1188.89 seconds)
Cbc0010I After 6900 nodes, 3449 on tree, 1e+50 best solution, best possible 126.0195 (1203.51 seconds)
Cbc0010I After 7000 nodes, 3499 on tree, 1e+50 best solution, best possible 126.0195 (1218.36 seconds)
Cbc0010I After 7100 nodes, 3549 on tree, 1e+50 best solution, best possible 126.0195 (1233.65 seconds)
Cbc0010I After 7200 nodes, 3599 on tree, 1e+50 best solution, best possible 126.0195 (1249.21 seconds)
Cbc0010I After 7300 nodes, 3649 on tree, 1e+50 best solution, best possible 126.0195 (1264.74 seconds)
Cbc0010I After 7400 nodes, 3699 on tree, 1e+50 best solution, best possible 126.0195 (1280.42 seconds)
Cbc0010I After 7500 nodes, 3749 on tree, 1e+50 best solution, best possible 126.0195 (1296.10 seconds)
Cbc0010I After 7600 nodes, 3799 on tree, 1e+50 best solution, best possible 126.0195 (1312.09 seconds)
Cbc0010I After 7700 nodes, 3849 on tree, 1e+50 best solution, best possible 126.0195 (1328.21 seconds)
Cbc0010I After 7800 nodes, 3898 on tree, 1e+50 best solution, best possible 126.0195 (1344.53 seconds)
Cbc0010I After 7900 nodes, 3947 on tree, 1e+50 best solution, best possible 126.0195 (1360.87 seconds)
Cbc0010I After 8000 nodes, 3997 on tree, 1e+50 best solution, best possible 126.0195 (1377.46 seconds)
Cbc0010I After 8100 nodes, 4047 on tree, 1e+50 best solution, best possible 126.0195 (1394.06 seconds)
Cbc0010I After 8200 nodes, 4097 on tree, 1e+50 best solution, best possible 126.0195 (1410.63 seconds)
Cbc0010I After 8300 nodes, 4147 on tree, 1e+50 best solution, best possible 126.0195 (1427.25 seconds)
Cbc0010I After 8400 nodes, 4197 on tree, 1e+50 best solution, best possible 126.0195 (1444.24 seconds)
Cbc0010I After 8500 nodes, 4246 on tree, 1e+50 best solution, best possible 126.0195 (1461.32 seconds)
Cbc0010I After 8600 nodes, 4296 on tree, 1e+50 best solution, best possible 126.0195 (1478.67 seconds)
Cbc0010I After 8700 nodes, 4346 on tree, 1e+50 best solution, best possible 126.0195 (1496.11 seconds)
Cbc0010I After 8800 nodes, 4396 on tree, 1e+50 best solution, best possible 126.0195 (1513.62 seconds)
Cbc0010I After 8900 nodes, 4446 on tree, 1e+50 best solution, best possible 126.0195 (1531.38 seconds)
Cbc0010I After 9000 nodes, 4496 on tree, 1e+50 best solution, best possible 126.0195 (1549.26 seconds)
Cbc0010I After 9100 nodes, 4546 on tree, 1e+50 best solution, best possible 126.0195 (1567.29 seconds)
Cbc0010I After 9200 nodes, 4596 on tree, 1e+50 best solution, best possible 126.0195 (1585.33 seconds)
Cbc0010I After 9300 nodes, 4646 on tree, 1e+50 best solution, best possible 126.0195 (1603.55 seconds)
Cbc0010I After 9400 nodes, 4696 on tree, 1e+50 best solution, best possible 126.0195 (1621.82 seconds)
Cbc0010I After 9500 nodes, 4746 on tree, 1e+50 best solution, best possible 126.0195 (1640.26 seconds)
Cbc0010I After 9600 nodes, 4796 on tree, 1e+50 best solution, best possible 126.0195 (1658.84 seconds)
Cbc0010I After 9700 nodes, 4846 on tree, 1e+50 best solution, best possible 126.0195 (1677.39 seconds)
Cbc0010I After 9800 nodes, 4896 on tree, 1e+50 best solution, best possible 126.0195 (1696.10 seconds)
Cbc0010I After 9900 nodes, 4946 on tree, 1e+50 best solution, best possible 126.0195 (1715.03 seconds)
Cbc0010I After 10000 nodes, 4996 on tree, 1e+50 best solution, best possible 126.0195 (1734.10 seconds)
Cbc0010I After 10100 nodes, 5046 on tree, 1e+50 best solution, best possible 126.0195 (1753.40 seconds)
Cbc0010I After 10200 nodes, 5096 on tree, 1e+50 best solution, best possible 126.0195 (1772.87 seconds)
Cbc0010I After 10300 nodes, 5146 on tree, 1e+50 best solution, best possible 126.0195 (1792.58 seconds)
Cbc0010I After 10400 nodes, 5196 on tree, 1e+50 best solution, best possible 126.0195 (1812.19 seconds)
Cbc0010I After 10500 nodes, 5246 on tree, 1e+50 best solution, best possible 126.0195 (1832.04 seconds)
Cbc0010I After 10600 nodes, 5296 on tree, 1e+50 best solution, best possible 126.0195 (1852.06 seconds)
Cbc0010I After 10700 nodes, 5346 on tree, 1e+50 best solution, best possible 126.0195 (1872.29 seconds)
Cbc0010I After 10800 nodes, 5396 on tree, 1e+50 best solution, best possible 126.0195 (1892.56 seconds)
Cbc0010I After 10900 nodes, 5446 on tree, 1e+50 best solution, best possible 126.0195 (1913.08 seconds)
Cbc0010I After 11000 nodes, 5496 on tree, 1e+50 best solution, best possible 126.0195 (1933.62 seconds)
Cbc0010I After 11100 nodes, 5545 on tree, 1e+50 best solution, best possible 126.0195 (1954.28 seconds)
Cbc0010I After 11200 nodes, 5595 on tree, 1e+50 best solution, best possible 126.0195 (1975.13 seconds)
Cbc0010I After 11300 nodes, 5645 on tree, 1e+50 best solution, best possible 126.0195 (1996.09 seconds)
Cbc0010I After 11400 nodes, 5695 on tree, 1e+50 best solution, best possible 126.0195 (2017.11 seconds)
Cbc0010I After 11500 nodes, 5745 on tree, 1e+50 best solution, best possible 126.0195 (2038.20 seconds)
Cbc0010I After 11600 nodes, 5795 on tree, 1e+50 best solution, best possible 126.0195 (2059.62 seconds)
Cbc0010I After 11700 nodes, 5845 on tree, 1e+50 best solution, best possible 126.0195 (2081.11 seconds)
Cbc0010I After 11800 nodes, 5895 on tree, 1e+50 best solution, best possible 126.0195 (2102.78 seconds)
Cbc0010I After 11900 nodes, 5943 on tree, 1e+50 best solution, best possible 126.0195 (2124.56 seconds)
Cbc0010I After 12000 nodes, 5993 on tree, 1e+50 best solution, best possible 126.0195 (2146.67 seconds)
Cbc0010I After 12100 nodes, 6041 on tree, 1e+50 best solution, best possible 126.0195 (2168.73 seconds)
Cbc0010I After 12200 nodes, 6088 on tree, 1e+50 best solution, best possible 126.0195 (2190.99 seconds)
Cbc0010I After 12300 nodes, 6133 on tree, 1e+50 best solution, best possible 126.0195 (2213.26 seconds)
Optimality Based BT: 0 improved bounds
Optimality Based BT: 0 improved bounds
Optimality Based BT: 0 improved bounds
Cbc0010I After 12400 nodes, 6179 on tree, 1e+50 best solution, best possible 126.94827 (2398.92 seconds)
Cbc0010I After 12500 nodes, 6229 on tree, 1e+50 best solution, best possible 126.94827 (2416.14 seconds)
Cbc0010I After 12600 nodes, 6279 on tree, 1e+50 best solution, best possible 126.94827 (2432.55 seconds)
Cbc0010I After 12700 nodes, 6329 on tree, 1e+50 best solution, best possible 126.94827 (2448.09 seconds)
Cbc0010I After 12800 nodes, 6379 on tree, 1e+50 best solution, best possible 126.94827 (2463.82 seconds)
Cbc0010I After 12900 nodes, 6429 on tree, 1e+50 best solution, best possible 126.94827 (2479.94 seconds)
Cbc0010I After 13000 nodes, 6479 on tree, 1e+50 best solution, best possible 126.94827 (2496.05 seconds)
Cbc0010I After 13100 nodes, 6529 on tree, 1e+50 best solution, best possible 126.94827 (2511.00 seconds)
Cbc0010I After 13200 nodes, 6578 on tree, 1e+50 best solution, best possible 126.94827 (2525.95 seconds)
Cbc0010I After 13300 nodes, 6628 on tree, 1e+50 best solution, best possible 126.94827 (2541.18 seconds)
Cbc0010I After 13400 nodes, 6677 on tree, 1e+50 best solution, best possible 126.94827 (2555.93 seconds)
Cbc0010I After 13500 nodes, 6727 on tree, 1e+50 best solution, best possible 126.94827 (2569.92 seconds)
Cbc0010I After 13600 nodes, 6777 on tree, 1e+50 best solution, best possible 126.94827 (2584.32 seconds)
Cbc0010I After 13700 nodes, 6827 on tree, 1e+50 best solution, best possible 126.94827 (2598.85 seconds)
Cbc0010I After 13800 nodes, 6877 on tree, 1e+50 best solution, best possible 126.94827 (2612.54 seconds)
Cbc0010I After 13900 nodes, 6927 on tree, 1e+50 best solution, best possible 126.94827 (2626.16 seconds)
Cbc0010I After 14000 nodes, 6977 on tree, 1e+50 best solution, best possible 126.94827 (2639.60 seconds)
Cbc0010I After 14100 nodes, 7027 on tree, 1e+50 best solution, best possible 126.94827 (2652.66 seconds)
Cbc0010I After 14200 nodes, 7077 on tree, 1e+50 best solution, best possible 126.94827 (2664.78 seconds)
Cbc0010I After 14300 nodes, 7127 on tree, 1e+50 best solution, best possible 126.94827 (2677.61 seconds)
Cbc0010I After 14400 nodes, 7177 on tree, 1e+50 best solution, best possible 126.94827 (2690.42 seconds)
Cbc0010I After 14500 nodes, 7227 on tree, 1e+50 best solution, best possible 126.94827 (2702.93 seconds)
Cbc0010I After 14600 nodes, 7277 on tree, 1e+50 best solution, best possible 126.94827 (2715.18 seconds)
Cbc0010I After 14700 nodes, 7327 on tree, 1e+50 best solution, best possible 126.94827 (2727.33 seconds)
Cbc0010I After 14800 nodes, 7377 on tree, 1e+50 best solution, best possible 126.94827 (2740.08 seconds)
Cbc0010I After 14900 nodes, 7427 on tree, 1e+50 best solution, best possible 126.94827 (2752.35 seconds)
Cbc0010I After 15000 nodes, 7477 on tree, 1e+50 best solution, best possible 126.94827 (2763.98 seconds)
Cbc0010I After 15100 nodes, 7527 on tree, 1e+50 best solution, best possible 126.94827 (2776.46 seconds)
Cbc0010I After 15200 nodes, 7577 on tree, 1e+50 best solution, best possible 126.94827 (2789.05 seconds)
Cbc0010I After 15300 nodes, 7627 on tree, 1e+50 best solution, best possible 126.94827 (2801.72 seconds)
Cbc0010I After 15400 nodes, 7677 on tree, 1e+50 best solution, best possible 126.94827 (2813.98 seconds)
Cbc0010I After 15500 nodes, 7727 on tree, 1e+50 best solution, best possible 126.94827 (2826.16 seconds)
Cbc0010I After 15600 nodes, 7777 on tree, 1e+50 best solution, best possible 126.94827 (2838.71 seconds)
Cbc0010I After 15700 nodes, 7827 on tree, 1e+50 best solution, best possible 126.94827 (2851.45 seconds)
Cbc0010I After 15800 nodes, 7877 on tree, 1e+50 best solution, best possible 126.94827 (2864.36 seconds)
Cbc0010I After 15900 nodes, 7927 on tree, 1e+50 best solution, best possible 126.94827 (2876.77 seconds)
Cbc0010I After 16000 nodes, 7976 on tree, 1e+50 best solution, best possible 126.94827 (2889.82 seconds)
Cbc0010I After 16100 nodes, 8026 on tree, 1e+50 best solution, best possible 126.94827 (2902.44 seconds)
Cbc0010I After 16200 nodes, 8076 on tree, 1e+50 best solution, best possible 126.94827 (2915.12 seconds)
Cbc0010I After 16300 nodes, 8126 on tree, 1e+50 best solution, best possible 126.94827 (2927.79 seconds)
Cbc0010I After 16400 nodes, 8176 on tree, 1e+50 best solution, best possible 126.94827 (2940.76 seconds)
Cbc0010I After 16500 nodes, 8226 on tree, 1e+50 best solution, best possible 126.94827 (2953.94 seconds)
Cbc0010I After 16600 nodes, 8276 on tree, 1e+50 best solution, best possible 126.94827 (2966.43 seconds)
Cbc0010I After 16700 nodes, 8326 on tree, 1e+50 best solution, best possible 126.94827 (2979.17 seconds)
Cbc0010I After 16800 nodes, 8376 on tree, 1e+50 best solution, best possible 126.94827 (2991.99 seconds)
Cbc0010I After 16900 nodes, 8426 on tree, 1e+50 best solution, best possible 126.94827 (3004.99 seconds)
Cbc0010I After 17000 nodes, 8476 on tree, 1e+50 best solution, best possible 126.94827 (3018.38 seconds)
Cbc0010I After 17100 nodes, 8526 on tree, 1e+50 best solution, best possible 126.94827 (3031.62 seconds)
Cbc0010I After 17200 nodes, 8576 on tree, 1e+50 best solution, best possible 126.94827 (3044.97 seconds)
Cbc0010I After 17300 nodes, 8626 on tree, 1e+50 best solution, best possible 126.94827 (3058.22 seconds)
Cbc0010I After 17400 nodes, 8676 on tree, 1e+50 best solution, best possible 126.94827 (3071.51 seconds)
Cbc0010I After 17500 nodes, 8726 on tree, 1e+50 best solution, best possible 126.94827 (3085.08 seconds)
Cbc0010I After 17600 nodes, 8776 on tree, 1e+50 best solution, best possible 126.94827 (3098.54 seconds)
Cbc0010I After 17700 nodes, 8826 on tree, 1e+50 best solution, best possible 126.94827 (3112.12 seconds)
Cbc0010I After 17800 nodes, 8876 on tree, 1e+50 best solution, best possible 126.94827 (3125.72 seconds)
Cbc0010I After 17900 nodes, 8926 on tree, 1e+50 best solution, best possible 126.94827 (3139.18 seconds)
Cbc0010I After 18000 nodes, 8976 on tree, 1e+50 best solution, best possible 126.94827 (3152.76 seconds)
Cbc0010I After 18100 nodes, 9026 on tree, 1e+50 best solution, best possible 126.94827 (3166.44 seconds)
Cbc0010I After 18200 nodes, 9076 on tree, 1e+50 best solution, best possible 126.94827 (3180.16 seconds)
Cbc0010I After 18300 nodes, 9126 on tree, 1e+50 best solution, best possible 126.94827 (3194.04 seconds)
Cbc0010I After 18400 nodes, 9176 on tree, 1e+50 best solution, best possible 126.94827 (3208.08 seconds)
Cbc0010I After 18500 nodes, 9226 on tree, 1e+50 best solution, best possible 126.94827 (3222.26 seconds)
Cbc0010I After 18600 nodes, 9276 on tree, 1e+50 best solution, best possible 126.94827 (3236.59 seconds)
Cbc0010I After 18700 nodes, 9326 on tree, 1e+50 best solution, best possible 126.94827 (3250.96 seconds)
Cbc0010I After 18800 nodes, 9376 on tree, 1e+50 best solution, best possible 126.94827 (3265.39 seconds)
Cbc0010I After 18900 nodes, 9426 on tree, 1e+50 best solution, best possible 126.94827 (3279.85 seconds)
Cbc0010I After 19000 nodes, 9476 on tree, 1e+50 best solution, best possible 126.94827 (3294.52 seconds)
Cbc0010I After 19100 nodes, 9526 on tree, 1e+50 best solution, best possible 126.94827 (3309.34 seconds)
Cbc0010I After 19200 nodes, 9576 on tree, 1e+50 best solution, best possible 126.94827 (3324.24 seconds)
Cbc0010I After 19300 nodes, 9626 on tree, 1e+50 best solution, best possible 126.94827 (3339.31 seconds)
Cbc0010I After 19400 nodes, 9676 on tree, 1e+50 best solution, best possible 126.94827 (3354.68 seconds)
Cbc0010I After 19500 nodes, 9726 on tree, 1e+50 best solution, best possible 126.94827 (3370.14 seconds)
Cbc0010I After 19600 nodes, 9776 on tree, 1e+50 best solution, best possible 126.94827 (3385.72 seconds)
Cbc0010I After 19700 nodes, 9826 on tree, 1e+50 best solution, best possible 126.94827 (3401.50 seconds)
Cbc0010I After 19800 nodes, 9876 on tree, 1e+50 best solution, best possible 126.94827 (3417.47 seconds)
Cbc0010I After 19900 nodes, 9926 on tree, 1e+50 best solution, best possible 126.94827 (3433.56 seconds)
Cbc0010I After 20000 nodes, 9976 on tree, 1e+50 best solution, best possible 126.94827 (3450.12 seconds)
Cbc0010I After 20100 nodes, 10026 on tree, 1e+50 best solution, best possible 126.94827 (3466.74 seconds)
Cbc0010I After 20200 nodes, 10076 on tree, 1e+50 best solution, best possible 126.94827 (3483.43 seconds)
Cbc0010I After 20300 nodes, 10126 on tree, 1e+50 best solution, best possible 126.94827 (3500.24 seconds)
Cbc0010I After 20400 nodes, 10176 on tree, 1e+50 best solution, best possible 126.94827 (3517.11 seconds)
Cbc0010I After 20500 nodes, 10226 on tree, 1e+50 best solution, best possible 126.94827 (3534.10 seconds)
Cbc0010I After 20600 nodes, 10276 on tree, 1e+50 best solution, best possible 126.94827 (3551.33 seconds)
Cbc0010I After 20700 nodes, 10326 on tree, 1e+50 best solution, best possible 126.94827 (3568.77 seconds)
slurmstepd: error: *** JOB 1884528 ON optimum04 CANCELLED AT 2025-01-12T15:58:47 DUE TO TIME LIMIT ***
